#insiemi
set I := 1mattino 2sera;
set J := ds dn us uc;

#parametri

param C := 1mattino 1.1 2sera 1.6;

param D := ds 150 dn 110 us 120 uc 100;

param A (tr): 	1mattino	2sera	:=
ds				0.3			0.3
dn				0.1			0.2
us				0.1			0.3
uc				0.1			0.15